p edge 50 313 5
v 10 5 7 13 19 22 35 38 41 44 50
v 10 1 2 6 18 27 28 29 40 48 49
v 10 4 9 10 12 21 31 34 39 42 43
v 6 8 11 16 17 26 36
v 14 3 14 15 20 23 24 25 30 32 33 37 45 46 47
e 1 6
e 1 7
e 1 8
e 1 9
e 1 10
e 1 12
e 1 18
e 1 20
e 1 22
e 1 26
e 1 32
e 1 34
e 1 39
e 1 40
e 1 43
e 1 45
e 1 48
e 2 15
e 2 23
e 2 29
e 3 9
e 3 11
e 3 17
e 3 18
e 3 22
e 3 25
e 3 31
e 3 32
e 3 36
e 3 45
e 3 46
e 4 11
e 4 14
e 4 16
e 4 17
e 4 18
e 4 19
e 4 23
e 4 26
e 4 33
e 4 34
e 4 41
e 4 46
e 4 47
e 5 7
e 5 8
e 5 12
e 5 13
e 5 19
e 5 22
e 5 28
e 5 39
e 5 41
e 5 43
e 6 7
e 6 15
e 6 22
e 6 23
e 6 26
e 6 29
e 6 31
e 6 32
e 6 42
e 6 43
e 6 49
e 7 12
e 7 22
e 7 26
e 7 29
e 7 30
e 7 32
e 7 34
e 7 36
e 7 47
e 8 10
e 8 12
e 8 16
e 8 28
e 8 35
e 8 38
e 8 39
e 8 47
e 8 49
e 9 11
e 9 14
e 9 15
e 9 18
e 9 22
e 9 30
e 9 31
e 9 32
e 9 33
e 9 34
e 9 39
e 9 42
e 10 12
e 10 13
e 10 15
e 10 16
e 10 17
e 10 19
e 10 21
e 10 22
e 10 26
e 10 28
e 10 29
e 10 33
e 10 34
e 10 39
e 10 42
e 10 46
e 11 13
e 11 15
e 11 18
e 11 22
e 11 23
e 11 24
e 11 25
e 11 29
e 11 35
e 11 45
e 11 48
e 11 49
e 12 13
e 12 14
e 12 21
e 12 22
e 12 23
e 12 28
e 12 32
e 12 35
e 12 36
e 12 38
e 12 43
e 12 44
e 12 49
e 13 19
e 13 23
e 13 29
e 13 36
e 13 40
e 13 44
e 14 17
e 14 18
e 14 20
e 14 21
e 14 23
e 14 24
e 14 30
e 14 31
e 14 35
e 14 36
e 14 45
e 14 48
e 15 17
e 15 21
e 15 22
e 15 29
e 15 34
e 15 38
e 15 40
e 16 17
e 16 19
e 16 22
e 16 24
e 16 28
e 16 29
e 16 31
e 16 32
e 16 40
e 16 41
e 16 48
e 17 18
e 17 19
e 17 22
e 17 30
e 17 31
e 17 32
e 17 33
e 17 39
e 17 40
e 17 45
e 17 50
e 18 19
e 18 20
e 18 22
e 18 23
e 18 28
e 18 31
e 18 39
e 18 41
e 18 43
e 19 22
e 19 24
e 19 27
e 19 28
e 19 30
e 19 36
e 19 42
e 19 46
e 19 47
e 19 48
e 19 49
e 20 32
e 20 37
e 20 45
e 20 46
e 21 24
e 21 32
e 21 34
e 21 35
e 21 39
e 21 41
e 21 43
e 22 24
e 22 29
e 22 30
e 22 31
e 22 35
e 22 44
e 22 50
e 23 26
e 23 30
e 23 33
e 23 34
e 23 38
e 23 39
e 23 42
e 23 43
e 24 27
e 24 29
e 24 40
e 24 42
e 24 44
e 24 50
e 25 28
e 25 30
e 25 31
e 25 32
e 25 34
e 25 44
e 26 28
e 26 31
e 26 35
e 26 36
e 26 42
e 26 50
e 27 30
e 27 34
e 27 35
e 27 36
e 27 40
e 27 41
e 27 45
e 28 39
e 28 42
e 29 34
e 29 38
e 29 42
e 29 43
e 29 44
e 29 45
e 29 46
e 29 47
e 29 48
e 29 49
e 30 45
e 30 50
e 31 35
e 31 36
e 31 42
e 31 50
e 32 35
e 32 42
e 32 43
e 32 46
e 33 34
e 33 37
e 33 38
e 33 40
e 33 41
e 33 42
e 33 45
e 34 35
e 34 40
e 34 44
e 34 46
e 34 48
e 34 49
e 35 36
e 35 40
e 36 40
e 37 45
e 37 48
e 37 49
e 37 50
e 39 44
e 40 44
e 40 46
e 41 43
e 41 44
e 41 49
e 42 45
e 42 48
e 42 49
e 43 44
e 44 45
e 45 46
e 45 48
e 45 49
e 46 47
e 47 48
e 49 50
